\ENCODING=ISO-8859-1
\Problem name: MDHFVRP

Minimize
 obj: X(0,1,0,4) + X(0,1,1,3) + 2 X(0,2,0,4) + 2 X(0,2,1,3) + X(0,3,0,4)
      + X(0,3,1,3) + 2 X(0,4,0,4) + 2 X(0,4,1,3) + X(1,0,0,4) + X(1,0,1,3)
      + X(1,2,0,4) + X(1,2,1,3) + 2 X(1,3,0,4) + 2 X(1,3,1,3) + X(1,4,0,4)
      + X(1,4,1,3) + 2 X(2,0,0,4) + 2 X(2,0,1,3) + X(2,1,0,4) + X(2,1,1,3)
      + 2 X(2,3,0,4) + 2 X(2,3,1,3) + 2 X(2,4,0,4) + 2 X(2,4,1,3)
      + 3 X(3,0,0,4) + 3 X(3,0,1,3) + X(3,1,0,4) + X(3,1,1,3) + 2 X(3,2,0,4)
      + 2 X(3,2,1,3) + 4 X(4,0,0,4) + 4 X(4,0,1,3) + 5 X(4,1,0,4)
      + 5 X(4,1,1,3) + X(4,2,0,4) + X(4,2,1,3) + 0 f(3,3) + 0 f(3,4) + 0 f(4,3)
      + 0 f(4,4)
Subject To
 c2_0: X(1,0,0,4) + X(1,0,1,3) + X(2,0,0,4) + X(2,0,1,3) + X(3,0,0,4)
       + X(3,0,1,3) + X(4,0,0,4) + X(4,0,1,3)  = 1
 c2_1: X(0,1,0,4) + X(0,1,1,3) + X(2,1,0,4) + X(2,1,1,3) + X(3,1,0,4)
       + X(3,1,1,3) + X(4,1,0,4) + X(4,1,1,3)  = 1
 c2_2: X(0,2,0,4) + X(0,2,1,3) + X(1,2,0,4) + X(1,2,1,3) + X(3,2,0,4)
       + X(3,2,1,3) + X(4,2,0,4) + X(4,2,1,3)  = 1
 c3_0: X(0,1,0,4) + X(0,1,1,3) + X(0,2,0,4) + X(0,2,1,3) + X(0,3,0,4)
       + X(0,3,1,3) + X(0,4,0,4) + X(0,4,1,3)  = 1
 c3_1: X(1,0,0,4) + X(1,0,1,3) + X(1,2,0,4) + X(1,2,1,3) + X(1,3,0,4)
       + X(1,3,1,3) + X(1,4,0,4) + X(1,4,1,3)  = 1
 c3_2: X(2,0,0,4) + X(2,0,1,3) + X(2,1,0,4) + X(2,1,1,3) + X(2,3,0,4)
       + X(2,3,1,3) + X(2,4,0,4) + X(2,4,1,3)  = 1
 c4_0:  = 0
 c4_0: - X(0,1,0,4) - X(0,2,0,4) - X(0,3,0,4) - X(0,4,0,4) + X(1,0,0,4)
       + X(2,0,0,4) + X(3,0,0,4) + X(4,0,0,4)  = 0
 c4_0:  = 0
 c4_0: X(0,1,0,4) - X(1,0,0,4) - X(1,2,0,4) - X(1,3,0,4) - X(1,4,0,4)
       + X(2,1,0,4) + X(3,1,0,4) + X(4,1,0,4)  = 0
 c4_0:  = 0
 c4_0: X(0,2,0,4) + X(1,2,0,4) - X(2,0,0,4) - X(2,1,0,4) - X(2,3,0,4)
       - X(2,4,0,4) + X(3,2,0,4) + X(4,2,0,4)  = 0
 c4_0:  = 0
 c4_0: X(0,3,0,4) + X(1,3,0,4) + X(2,3,0,4) - X(3,0,0,4) - X(3,1,0,4)
       - X(3,2,0,4)  = 0
 c4_0:  = 0
 c4_0: X(0,4,0,4) + X(1,4,0,4) + X(2,4,0,4) - X(4,0,0,4) - X(4,1,0,4)
       - X(4,2,0,4)  = 0
 c4_1: - X(0,1,1,3) - X(0,2,1,3) - X(0,3,1,3) - X(0,4,1,3) + X(1,0,1,3)
       + X(2,0,1,3) + X(3,0,1,3) + X(4,0,1,3)  = 0
 c4_1:  = 0
 c4_1: X(0,1,1,3) - X(1,0,1,3) - X(1,2,1,3) - X(1,3,1,3) - X(1,4,1,3)
       + X(2,1,1,3) + X(3,1,1,3) + X(4,1,1,3)  = 0
 c4_1:  = 0
 c4_1: X(0,2,1,3) + X(1,2,1,3) - X(2,0,1,3) - X(2,1,1,3) - X(2,3,1,3)
       - X(2,4,1,3) + X(3,2,1,3) + X(4,2,1,3)  = 0
 c4_1:  = 0
 c4_1: X(0,3,1,3) + X(1,3,1,3) + X(2,3,1,3) - X(3,0,1,3) - X(3,1,1,3)
       - X(3,2,1,3)  = 0
 c4_1:  = 0
 c4_1: X(0,4,1,3) + X(1,4,1,3) + X(2,4,1,3) - X(4,0,1,3) - X(4,1,1,3)
       - X(4,2,1,3)  = 0
 c4_1:  = 0
 c5_3: f(3,0)  = 7
 c5_3: f(3,0) + f(3,1)  = 14
 c5_3: f(3,0) + f(3,1) + f(3,2)  = 21
 c5_4: f(4,0)  = 7
 c5_4: f(4,0) + f(4,1)  = 14
 c5_4: f(4,0) + f(4,1) + f(4,2)  = 21
 c6_0: - f(0,1) - f(0,2) - f(0,3) - f(0,4) + f(1,0) + f(2,0) + f(3,0) + f(4,0)
        = 2
 c6_1: f(0,1) - f(1,0) - f(1,2) - f(1,3) - f(1,4) + f(2,1) + f(3,1) + f(4,1)
        = 3
 c6_2: f(0,2) + f(1,2) - f(2,0) - f(2,1) - f(2,3) - f(2,4) + f(3,2) + f(4,2)
        = 2
 c7_0: - f(0,0) >= 0
 c7_0: 5 X(0,1,0,4) + 7 X(0,1,1,3) - f(0,1) >= 0
 c7_0: 5 X(0,2,0,4) + 7 X(0,2,1,3) - f(0,2) >= 0
 c7_1: 5 X(1,0,0,4) + 7 X(1,0,1,3) - f(1,0) >= 0
 c7_1: - f(1,1) >= 0
 c7_1: 5 X(1,2,0,4) + 7 X(1,2,1,3) - f(1,2) >= 0
 c7_2: 5 X(2,0,0,4) + 7 X(2,0,1,3) - f(2,0) >= 0
 c7_2: 5 X(2,1,0,4) + 7 X(2,1,1,3) - f(2,1) >= 0
 c7_2: - f(2,2) >= 0
 c7_3: 5 X(3,0,0,4) + 7 X(3,0,1,3) - f(3,0) >= 0
 c7_3: 5 X(3,1,0,4) + 7 X(3,1,1,3) - f(3,1) >= 0
 c7_3: 5 X(3,2,0,4) + 7 X(3,2,1,3) - f(3,2) >= 0
 c7_4: 5 X(4,0,0,4) + 7 X(4,0,1,3) - f(4,0) >= 0
 c7_4: 5 X(4,1,0,4) + 7 X(4,1,1,3) - f(4,1) >= 0
 c7_4: 5 X(4,2,0,4) + 7 X(4,2,1,3) - f(4,2) >= 0
Bounds
 0 <= X(0,1,0,4) <= 1
 0 <= X(0,1,1,3) <= 1
 0 <= X(0,2,0,4) <= 1
 0 <= X(0,2,1,3) <= 1
 0 <= X(0,3,0,4) <= 1
 0 <= X(0,3,1,3) <= 1
 0 <= X(0,4,0,4) <= 1
 0 <= X(0,4,1,3) <= 1
 0 <= X(1,0,0,4) <= 1
 0 <= X(1,0,1,3) <= 1
 0 <= X(1,2,0,4) <= 1
 0 <= X(1,2,1,3) <= 1
 0 <= X(1,3,0,4) <= 1
 0 <= X(1,3,1,3) <= 1
 0 <= X(1,4,0,4) <= 1
 0 <= X(1,4,1,3) <= 1
 0 <= X(2,0,0,4) <= 1
 0 <= X(2,0,1,3) <= 1
 0 <= X(2,1,0,4) <= 1
 0 <= X(2,1,1,3) <= 1
 0 <= X(2,3,0,4) <= 1
 0 <= X(2,3,1,3) <= 1
 0 <= X(2,4,0,4) <= 1
 0 <= X(2,4,1,3) <= 1
 0 <= X(3,0,0,4) <= 1
 0 <= X(3,0,1,3) <= 1
 0 <= X(3,1,0,4) <= 1
 0 <= X(3,1,1,3) <= 1
 0 <= X(3,2,0,4) <= 1
 0 <= X(3,2,1,3) <= 1
 0 <= X(4,0,0,4) <= 1
 0 <= X(4,0,1,3) <= 1
 0 <= X(4,1,0,4) <= 1
 0 <= X(4,1,1,3) <= 1
 0 <= X(4,2,0,4) <= 1
 0 <= X(4,2,1,3) <= 1
 0 <= f(0,0) <= 7
 0 <= f(0,1) <= 7
 0 <= f(0,2) <= 7
 0 <= f(0,3) <= 7
 0 <= f(0,4) <= 7
 0 <= f(1,0) <= 7
 0 <= f(1,1) <= 7
 0 <= f(1,2) <= 7
 0 <= f(1,3) <= 7
 0 <= f(1,4) <= 7
 0 <= f(2,0) <= 7
 0 <= f(2,1) <= 7
 0 <= f(2,2) <= 7
 0 <= f(2,3) <= 7
 0 <= f(2,4) <= 7
 0 <= f(3,0) <= 7
 0 <= f(3,1) <= 7
 0 <= f(3,2) <= 7
 0 <= f(3,3) <= 7
 0 <= f(3,4) <= 7
 0 <= f(4,0) <= 7
 0 <= f(4,1) <= 7
 0 <= f(4,2) <= 7
 0 <= f(4,3) <= 7
 0 <= f(4,4) <= 7
Binaries
 X(0,1,0,4)  X(0,1,1,3)  X(0,2,0,4)  X(0,2,1,3)  X(0,3,0,4)  X(0,3,1,3) 
 X(0,4,0,4)  X(0,4,1,3)  X(1,0,0,4)  X(1,0,1,3)  X(1,2,0,4)  X(1,2,1,3) 
 X(1,3,0,4)  X(1,3,1,3)  X(1,4,0,4)  X(1,4,1,3)  X(2,0,0,4)  X(2,0,1,3) 
 X(2,1,0,4)  X(2,1,1,3)  X(2,3,0,4)  X(2,3,1,3)  X(2,4,0,4)  X(2,4,1,3) 
 X(3,0,0,4)  X(3,0,1,3)  X(3,1,0,4)  X(3,1,1,3)  X(3,2,0,4)  X(3,2,1,3) 
 X(4,0,0,4)  X(4,0,1,3)  X(4,1,0,4)  X(4,1,1,3)  X(4,2,0,4)  X(4,2,1,3) 
End
